NAME: ACTUAL_TOURS/amz0600
TYPE: TOUR
COMMENT: RouteID_3f18386a-25ef-4837-b06b-8ddcdacb4cf9
DIMENSION: 196
TOUR_SECTION
74
117
110
177
137
164
97
1
53
62
156
14
173
193
33
171
149
182
121
104
29
71
23
144
87
57
7
162
89
126
109
43
26
52
77
39
148
86
64
179
32
94
75
73
134
196
107
31
67
37
30
54
45
170
100
178
20
9
186
154
183
99
78
169
24
181
36
153
143
72
108
63
92
116
124
69
50
41
85
151
190
125
61
191
147
175
13
166
79
25
10
70
135
15
60
49
68
48
187
128
35
167
59
6
114
123
159
18
22
150
88
83
131
98
142
66
118
168
129
188
101
91
12
165
194
111
115
130
42
136
8
120
38
192
51
55
46
96
58
160
93
2
27
139
34
80
119
140
82
127
102
158
176
157
195
152
155
174
56
11
112
133
65
19
105
84
76
40
180
138
21
106
44
47
145
146
189
90
163
81
172
103
184
17
3
4
113
5
141
185
122
16
28
161
95
132
-1
EOF
